Custom/1058756_13.param
$ LBS instance with n = 13, seed = 1058756
letting cards be [36,30,35,49,23,0,31,28,32,34,37,10,12]
